c defined variables: 13 25 29 33 37 41 45 49 53 57 61 65 69 73 77 81 85 89 93 97 101 105 109 113 126 136 140 144 148 152 156 160 164 168 172 182 186 190 194 199 200 204 209 210 214 219 220 225 229 236 240 244 248 252 256 260 261 263 264 265 267 268 270 271 272 273 275 276 280 281 283 284 285 286 287 290 291 293 294 295 297 298 300 301 302 303 305 307 308 310 311 312 314 315 317 318 319 320 322 323 325 326 327 329 330 332 333 334 335 336 340 341 342 344 345 347 348 349 350 352 353 355 356 357 359 360 362 363 364 365 366 367 368 369 370 371 372 373 374 375 376 377 378 379 380 381 383 384 385 386 387 388 389 390 391 392 393 394 395 396 397 398 399 400 401 402 403 404 405 406 407 408 409 410 411 412 413 414 415 416 417 418 419 420 421 422 423 424 425 426 427 428 429 430 431 432 433 434 435 436 437 438 439 441 442 443 444 445 446 447 448 449 450 451 452 453 454 455 456 457 458 459 460 461 462 463 464 465 467 
p cnf 1634 2052
a 247 243 235 239 68 72 56 64 48 60 40 52 32 44 309 313 255 198 208 218 289 292 296 299 306 351 346 440 331 343 339 321 316 328 324 20 36 4 8 24 16 1 28 12 361 5 354 358 21 2 9 17 251 185 181 167 171 178 175 151 155 159 163 282 224 262 266 259 382 279 269 274 189 207 197 193 213 223 203 217 232 228 104 96 100 92 88 84 76 80 112 108 122 135 129 132 116 139 125 119 147 143 0
e 3 6 7 10 11 14 15 18 19 22 23 26 27 30 31 34 35 38 39 42 43 46 47 50 51 54 55 58 59 62 63 66 67 70 71 74 75 78 79 82 83 86 87 90 91 94 95 98 99 102 103 106 107 110 111 114 115 117 118 120 121 123 124 127 128 130 131 133 134 137 138 141 142 145 146 149 150 153 154 157 158 161 162 165 166 169 170 173 174 176 177 179 180 183 184 187 188 191 192 195 196 201 202 205 206 211 212 215 216 221 222 226 227 230 231 233 234 237 238 241 242 245 246 249 250 253 254 257 258 278 304 338 466 13 25 29 33 37 41 45 49 53 57 61 65 69 73 77 81 85 89 93 97 101 105 109 113 126 136 140 144 148 152 156 160 164 168 172 182 186 190 194 199 200 204 209 210 214 219 220 225 229 236 240 244 248 252 256 260 261 263 264 265 267 268 270 271 272 273 275 276 280 281 283 284 285 286 287 290 291 293 294 295 297 298 300 301 302 303 305 307 308 310 311 312 314 315 317 318 319 320 322 323 325 326 327 329 330 332 333 334 335 336 340 341 342 344 345 347 348 349 350 352 353 355 356 357 359 360 362 363 364 365 366 367 368 369 370 371 372 373 374 375 376 377 378 379 380 381 383 384 385 386 387 388 389 390 391 392 393 394 395 396 397 398 399 400 401 402 403 404 405 406 407 408 409 410 411 412 413 414 415 416 417 418 419 420 421 422 423 424 425 426 427 428 429 430 431 432 433 434 435 436 437 438 439 441 442 443 444 445 446 447 448 449 450 451 452 453 454 455 456 457 458 459 460 461 462 463 464 465 467 1420 1421 1422 1423 1424 1425 1426 1427 1428 1429 1430 1431 1432 1433 1434 1435 1436 1437 1438 1439 1440 1441 1442 1443 1444 1445 1446 1447 1448 1449 1450 1451 1452 1453 1454 1455 1456 1457 1458 1459 1460 1461 1462 1463 1464 1465 1466 1467 1468 1469 1470 1471 1472 1473 1474 1475 1476 1477 1478 1479 1480 1481 1482 1483 1484 1485 1486 1487 1488 1489 1490 1491 1492 1493 1494 1495 1496 1497 1498 1499 1500 1501 1502 1503 1504 1505 1506 1507 1508 1509 1510 1511 1512 1513 1514 1515 1516 1517 1518 1519 1520 1521 1522 1523 1524 1525 1526 1527 1528 1529 1530 1531 1532 1533 1534 1535 1536 1537 1538 1539 1540 1541 1542 1543 1544 1545 1546 1547 1548 1549 1550 1551 1552 1553 1554 1555 1556 1557 1558 1559 1560 1561 1562 1563 1564 1565 1566 1567 1568 1569 1570 1571 1572 1573 1574 1575 1576 1577 1578 1579 1580 1581 1582 1583 1584 1585 1586 1587 1588 1589 1590 1591 1592 1593 1594 1595 1596 1597 1598 1599 1600 1601 1602 1603 1604 1605 1606 1607 1608 1609 1610 1611 1612 1613 1614 1615 1616 1617 1618 1619 1620 1621 1622 1623 1624 1625 1626 1627 1628 1629 1630 1631 1632 1633 1634 0
d 277 178 175 382 2 0
d 337 440 2 0
d 288 207 197 223 232 217 0
1421 -13 0
-1421 13 0
1422 -25 0
-1422 25 0
1423 -29 0
-1423 29 0
1424 -33 0
-1424 33 0
1425 -37 0
-1425 37 0
1426 -41 0
-1426 41 0
1427 -45 0
-1427 45 0
1428 -49 0
-1428 49 0
1429 -53 0
-1429 53 0
1430 -57 0
-1430 57 0
1431 -61 0
-1431 61 0
1432 -65 0
-1432 65 0
1433 -69 0
-1433 69 0
1434 -73 0
-1434 73 0
1435 -77 0
-1435 77 0
1436 -81 0
-1436 81 0
1437 -85 0
-1437 85 0
1438 -89 0
-1438 89 0
1439 -93 0
-1439 93 0
1440 -97 0
-1440 97 0
1441 -101 0
-1441 101 0
1442 -105 0
-1442 105 0
1443 -109 0
-1443 109 0
1444 -113 0
-1444 113 0
1445 -126 0
-1445 126 0
1446 -136 0
-1446 136 0
1447 -140 0
-1447 140 0
1448 -144 0
-1448 144 0
1449 -148 0
-1449 148 0
1450 -152 0
-1450 152 0
1451 -156 0
-1451 156 0
1428 -160 0
-1428 160 0
1452 -164 0
-1452 164 0
1453 -168 0
-1453 168 0
1454 -172 0
-1454 172 0
1455 -182 0
-1455 182 0
1456 -186 0
-1456 186 0
1457 -190 0
-1457 190 0
1458 -194 0
-1458 194 0
1459 -199 0
-1459 199 0
1460 -200 0
-1460 200 0
1461 -204 0
-1461 204 0
1462 -209 0
-1462 209 0
1463 -210 0
-1463 210 0
1464 -214 0
-1464 214 0
1465 -219 0
-1465 219 0
1466 -220 0
-1466 220 0
1467 -225 0
-1467 225 0
1468 -229 0
-1468 229 0
1440 -236 0
-1440 236 0
1469 -240 0
-1469 240 0
1470 -244 0
-1470 244 0
1471 -248 0
-1471 248 0
-1472 -252 0
1472 252 0
1473 -256 0
-1473 256 0
1474 -260 0
-1474 260 0
1475 -261 0
-1475 261 0
1476 -263 0
-1476 263 0
1477 -264 0
-1477 264 0
-1478 -265 0
1478 265 0
1479 -267 0
-1479 267 0
1480 -268 0
-1480 268 0
1481 -270 0
-1481 270 0
1482 -271 0
-1482 271 0
-1483 -272 0
1483 272 0
-1484 -273 0
1484 273 0
1485 -275 0
-1485 275 0
1486 -276 0
-1486 276 0
1487 -280 0
-1487 280 0
1488 -281 0
-1488 281 0
1489 -283 0
-1489 283 0
1490 -284 0
-1490 284 0
-1491 -285 0
1491 285 0
-1492 -286 0
1492 286 0
-1493 -287 0
1493 287 0
1494 -290 0
-1494 290 0
1495 -291 0
-1495 291 0
1496 -293 0
-1496 293 0
1497 -294 0
-1497 294 0
-1498 -295 0
1498 295 0
1499 -297 0
-1499 297 0
1500 -298 0
-1500 298 0
1501 -300 0
-1501 300 0
1502 -301 0
-1502 301 0
-1503 -302 0
1503 302 0
-1504 -303 0
1504 303 0
-1505 -305 0
1505 305 0
1506 -307 0
-1506 307 0
1507 -308 0
-1507 308 0
1508 -310 0
-1508 310 0
1509 -311 0
-1509 311 0
-1510 -312 0
1510 312 0
1511 -314 0
-1511 314 0
1512 -315 0
-1512 315 0
1513 -317 0
-1513 317 0
1514 -318 0
-1514 318 0
-1515 -319 0
1515 319 0
-1516 -320 0
1516 320 0
1517 -322 0
-1517 322 0
1518 -323 0
-1518 323 0
1519 -325 0
-1519 325 0
1520 -326 0
-1520 326 0
-1521 -327 0
1521 327 0
1522 -329 0
-1522 329 0
1523 -330 0
-1523 330 0
1524 -332 0
-1524 332 0
1525 -333 0
-1525 333 0
-1526 -334 0
1526 334 0
-1527 -335 0
1527 335 0
-1529 -336 0
1529 336 0
1530 -340 0
-1530 340 0
1531 -341 0
-1531 341 0
-1532 -342 0
1532 342 0
1533 -344 0
-1533 344 0
1534 -345 0
-1534 345 0
1535 -347 0
-1535 347 0
1536 -348 0
-1536 348 0
-1537 -349 0
1537 349 0
-1538 -350 0
1538 350 0
1539 -352 0
-1539 352 0
1540 -353 0
-1540 353 0
1541 -355 0
-1541 355 0
1542 -356 0
-1542 356 0
-1543 -357 0
1543 357 0
1544 -359 0
-1544 359 0
1545 -360 0
-1545 360 0
1546 -362 0
-1546 362 0
1547 -363 0
-1547 363 0
-1548 -364 0
1548 364 0
-1549 -365 0
1549 365 0
-1550 -366 0
1550 366 0
-1551 -367 0
1551 367 0
-1552 -368 0
1552 368 0
1553 -369 0
-1553 369 0
1554 -370 0
-1554 370 0
1555 -371 0
-1555 371 0
1556 -372 0
-1556 372 0
-1557 -373 0
1557 373 0
1558 -374 0
-1558 374 0
1559 -375 0
-1559 375 0
1560 -376 0
-1560 376 0
1561 -377 0
-1561 377 0
-1562 -378 0
1562 378 0
-1563 -379 0
1563 379 0
1564 -380 0
-1564 380 0
1565 -381 0
-1565 381 0
1566 -383 0
-1566 383 0
1567 -384 0
-1567 384 0
-1568 -385 0
1568 385 0
1569 -386 0
-1569 386 0
1570 -387 0
-1570 387 0
1571 -388 0
-1571 388 0
1572 -389 0
-1572 389 0
-1573 -390 0
1573 390 0
-1574 -391 0
1574 391 0
-1575 -392 0
1575 392 0
1576 -393 0
-1576 393 0
1577 -394 0
-1577 394 0
1578 -395 0
-1578 395 0
1579 -396 0
-1579 396 0
-1580 -397 0
1580 397 0
1581 -398 0
-1581 398 0
1582 -399 0
-1582 399 0
1583 -400 0
-1583 400 0
1584 -401 0
-1584 401 0
-1585 -402 0
1585 402 0
-1586 -403 0
1586 403 0
1587 -404 0
-1587 404 0
1588 -405 0
-1588 405 0
1589 -406 0
-1589 406 0
1590 -407 0
-1590 407 0
-1591 -408 0
1591 408 0
1592 -409 0
-1592 409 0
1593 -410 0
-1593 410 0
1594 -411 0
-1594 411 0
1595 -412 0
-1595 412 0
-1596 -413 0
1596 413 0
-1597 -414 0
1597 414 0
-1599 -415 0
1599 415 0
-1601 -416 0
1601 416 0
1506 -417 0
-1506 417 0
1602 -418 0
-1602 418 0
1508 -419 0
-1508 419 0
1603 -420 0
-1603 420 0
-1604 -421 0
1604 421 0
1511 -422 0
-1511 422 0
1605 -423 0
-1605 423 0
1513 -424 0
-1513 424 0
1606 -425 0
-1606 425 0
-1607 -426 0
1607 426 0
-1608 -427 0
1608 427 0
1517 -428 0
-1517 428 0
1609 -429 0
-1609 429 0
1519 -430 0
-1519 430 0
1610 -431 0
-1610 431 0
-1611 -432 0
1611 432 0
1522 -433 0
-1522 433 0
1612 -434 0
-1612 434 0
1524 -435 0
-1524 435 0
1613 -436 0
-1613 436 0
-1614 -437 0
1614 437 0
-1615 -438 0
1615 438 0
-1616 -439 0
1616 439 0
1617 -441 0
-1617 441 0
1618 -442 0
-1618 442 0
1530 -443 0
-1530 443 0
1619 -444 0
-1619 444 0
-1620 -445 0
1620 445 0
1533 -446 0
-1533 446 0
1621 -447 0
-1621 447 0
1535 -448 0
-1535 448 0
1622 -449 0
-1622 449 0
-1623 -450 0
1623 450 0
-1624 -451 0
1624 451 0
1539 -452 0
-1539 452 0
1625 -453 0
-1625 453 0
1541 -454 0
-1541 454 0
1626 -455 0
-1626 455 0
-1627 -456 0
1627 456 0
1544 -457 0
-1544 457 0
1628 -458 0
-1628 458 0
1546 -459 0
-1546 459 0
1629 -460 0
-1629 460 0
-1630 -461 0
1630 461 0
-1631 -462 0
1631 462 0
-1632 -463 0
1632 463 0
-1633 -464 0
1633 464 0
-1634 -465 0
1634 465 0
1420 -467 0
-1420 467 0
467 0
-467 258 466 0
-258 254 -257 0
-254 250 -253 0
-250 246 -249 0
-246 242 -245 0
-242 238 -241 0
-238 234 -237 0
-234 231 -233 0
-231 227 -230 0
-227 222 -226 0
-222 216 -221 0
-216 212 -215 0
-212 206 -211 0
-206 202 -205 0
-202 196 -201 0
-196 192 -195 0
-192 188 -191 0
-188 184 -187 0
-184 180 -183 0
-180 177 -179 0
-177 174 -176 0
-174 170 -173 0
-170 166 -169 0
-166 162 -165 0
-162 158 -161 0
-158 154 -157 0
-154 150 -153 0
-150 146 -149 0
-146 142 -145 0
-142 138 -141 0
-138 134 -137 0
-134 131 -133 0
-131 128 -130 0
-128 124 -127 0
-124 121 -123 0
-121 118 -120 0
-118 115 -117 0
-115 111 -114 0
-111 107 -110 0
-107 103 -106 0
-103 99 -102 0
-99 95 -98 0
-95 91 -94 0
-91 87 -90 0
-87 83 -86 0
-83 79 -82 0
-79 75 -78 0
-75 71 -74 0
-71 67 -70 0
-67 63 -66 0
-63 59 -62 0
-59 55 -58 0
-55 51 -54 0
-51 47 -50 0
-47 43 -46 0
-43 39 -42 0
-39 35 -38 0
-35 31 -34 0
-31 27 -30 0
-27 23 -26 0
-23 19 -22 0
-19 15 -18 0
-15 11 -14 0
-11 7 -10 0
-7 -3 -6 0
1 -2 3 0
-1 2 3 0
4 -5 6 0
-4 5 6 0
8 -9 10 0
-8 9 10 0
12 13 14 0
-12 -13 14 0
-4 -8 13 0
-13 4 0
-13 8 0
16 -17 18 0
-16 17 18 0
20 -21 22 0
-20 21 22 0
24 25 26 0
-24 -25 26 0
-16 -20 25 0
-25 16 0
-25 20 0
28 29 30 0
-28 -29 30 0
-12 -24 29 0
-29 12 0
-29 24 0
32 33 34 0
-32 -33 34 0
-5 -8 33 0
-33 5 0
-33 8 0
36 37 38 0
-36 -37 38 0
-32 -24 37 0
-37 32 0
-37 24 0
40 41 42 0
-40 -41 42 0
-4 -9 41 0
-41 4 0
-41 9 0
44 45 46 0
-44 -45 46 0
-40 -24 45 0
-45 40 0
-45 24 0
48 49 50 0
-48 -49 50 0
-5 -9 49 0
-49 5 0
-49 9 0
52 53 54 0
-52 -53 54 0
-48 -24 53 0
-53 48 0
-53 24 0
56 57 58 0
-56 -57 58 0
-17 -20 57 0
-57 17 0
-57 20 0
60 61 62 0
-60 -61 62 0
-12 -56 61 0
-61 12 0
-61 56 0
64 65 66 0
-64 -65 66 0
-32 -56 65 0
-65 32 0
-65 56 0
68 69 70 0
-68 -69 70 0
-40 -56 69 0
-69 40 0
-69 56 0
72 73 74 0
-72 -73 74 0
-48 -56 73 0
-73 48 0
-73 56 0
76 77 78 0
-76 -77 78 0
-16 -21 77 0
-77 16 0
-77 21 0
80 81 82 0
-80 -81 82 0
-12 -76 81 0
-81 12 0
-81 76 0
84 85 86 0
-84 -85 86 0
-32 -76 85 0
-85 32 0
-85 76 0
88 89 90 0
-88 -89 90 0
-40 -76 89 0
-89 40 0
-89 76 0
92 93 94 0
-92 -93 94 0
-48 -76 93 0
-93 48 0
-93 76 0
96 97 98 0
-96 -97 98 0
-17 -21 97 0
-97 17 0
-97 21 0
100 101 102 0
-100 -101 102 0
-12 -96 101 0
-101 12 0
-101 96 0
104 105 106 0
-104 -105 106 0
-32 -96 105 0
-105 32 0
-105 96 0
108 109 110 0
-108 -109 110 0
-40 -96 109 0
-109 40 0
-109 96 0
112 113 114 0
-112 -113 114 0
-48 -96 113 0
-113 48 0
-113 96 0
116 -2 117 0
-116 2 117 0
119 -5 120 0
-119 5 120 0
122 -9 123 0
-122 9 123 0
125 126 127 0
-125 -126 127 0
-119 -122 126 0
-126 119 0
-126 122 0
129 -17 130 0
-129 17 130 0
132 -21 133 0
-132 21 133 0
135 136 137 0
-135 -136 137 0
-129 -132 136 0
-136 129 0
-136 132 0
139 140 141 0
-139 -140 141 0
-125 -135 140 0
-140 125 0
-140 135 0
143 144 145 0
-143 -144 145 0
-5 -122 144 0
-144 5 0
-144 122 0
147 148 149 0
-147 -148 149 0
-143 -135 148 0
-148 143 0
-148 135 0
151 152 153 0
-151 -152 153 0
-119 -9 152 0
-152 119 0
-152 9 0
155 156 157 0
-155 -156 157 0
-151 -135 156 0
-156 151 0
-156 135 0
159 160 161 0
-159 -160 161 0
-5 -9 160 0
-160 5 0
-160 9 0
163 164 165 0
-163 -164 165 0
-159 -135 164 0
-164 159 0
-164 135 0
167 168 169 0
-167 -168 169 0
-17 -132 168 0
-168 17 0
-168 132 0
171 172 173 0
-171 -172 173 0
-125 -167 172 0
-172 125 0
-172 167 0
175 143 176 0
-175 -143 176 0
178 167 179 0
-178 -167 179 0
181 182 183 0
-181 -182 183 0
-151 -167 182 0
-182 151 0
-182 167 0
185 186 187 0
-185 -186 187 0
-159 -167 186 0
-186 159 0
-186 167 0
189 190 191 0
-189 -190 191 0
-129 -21 190 0
-190 129 0
-190 21 0
193 194 195 0
-193 -194 195 0
-143 -189 194 0
-194 143 0
-194 189 0
197 200 201 0
-197 -200 201 0
-199 -193 200 0
-116 -198 199 0
-200 199 0
-200 193 0
-199 116 0
-199 198 0
203 204 205 0
-203 -204 205 0
-151 -189 204 0
-204 151 0
-204 189 0
207 210 211 0
-207 -210 211 0
-209 -203 210 0
-116 -208 209 0
-210 209 0
-210 203 0
-209 116 0
-209 208 0
213 214 215 0
-213 -214 215 0
-159 -189 214 0
-214 159 0
-214 189 0
217 220 221 0
-217 -220 221 0
-219 -213 220 0
-116 -218 219 0
-220 219 0
-220 213 0
-219 116 0
-219 218 0
223 225 226 0
-223 -225 226 0
-116 -224 225 0
-225 116 0
-225 224 0
228 229 230 0
-228 -229 230 0
-125 -189 229 0
-229 125 0
-229 189 0
232 228 233 0
-232 -228 233 0
235 236 237 0
-235 -236 237 0
-17 -21 236 0
-236 17 0
-236 21 0
239 240 241 0
-239 -240 241 0
-125 -235 240 0
-240 125 0
-240 235 0
243 244 245 0
-243 -244 245 0
-143 -235 244 0
-244 143 0
-244 235 0
247 248 249 0
-247 -248 249 0
-151 -235 248 0
-248 151 0
-248 235 0
251 252 253 0
-251 -252 253 0
-159 235 252 0
159 -235 252 0
-159 -235 252 0
-252 159 235 0
255 256 257 0
-255 -256 257 0
-143 -167 256 0
-256 143 0
-256 167 0
-466 -368 465 0
-466 368 -465 0
-368 305 367 0
-305 287 304 0
-287 273 286 0
-273 265 272 0
-265 261 264 0
-261 260 0
-261 139 0
-260 116 0
-260 259 0
-264 263 0
-264 147 0
-263 116 0
-263 262 0
-272 268 271 0
-268 267 0
-268 155 0
-267 116 0
-267 266 0
-271 270 0
-271 163 0
-270 116 0
-270 269 0
-286 278 285 0
-278 276 277 0
-276 275 0
-276 171 0
-275 116 0
-275 274 0
-285 281 284 0
-281 280 0
-281 181 0
-280 116 0
-280 279 0
-284 283 0
-284 185 0
-283 116 0
-283 282 0
-304 288 303 0
-303 295 302 0
-295 291 294 0
-291 290 0
-291 239 0
-290 116 0
-290 289 0
-294 293 0
-294 243 0
-293 116 0
-293 292 0
-302 298 301 0
-298 297 0
-298 247 0
-297 116 0
-297 296 0
-301 300 0
-301 251 0
-300 116 0
-300 299 0
-367 336 366 0
-336 320 335 0
-320 312 319 0
-312 308 311 0
-308 307 0
-308 139 0
-307 2 0
-307 306 0
-311 310 0
-311 147 0
-310 2 0
-310 309 0
-319 315 318 0
-315 314 0
-315 155 0
-314 2 0
-314 313 0
-318 317 0
-318 163 0
-317 2 0
-317 316 0
-335 327 334 0
-327 323 326 0
-323 322 0
-323 171 0
-322 2 0
-322 321 0
-326 325 0
-326 255 0
-325 2 0
-325 324 0
-334 330 333 0
-330 329 0
-330 181 0
-329 2 0
-329 328 0
-333 332 0
-333 185 0
-332 2 0
-332 331 0
-366 350 365 0
-350 342 349 0
-342 338 341 0
-338 337 0
-338 228 0
-341 340 0
-341 193 0
-340 2 0
-340 339 0
-349 345 348 0
-345 344 0
-345 203 0
-344 2 0
-344 343 0
-348 347 0
-348 213 0
-347 2 0
-347 346 0
-365 357 364 0
-357 353 356 0
-353 352 0
-353 239 0
-352 2 0
-352 351 0
-356 355 0
-356 243 0
-355 2 0
-355 354 0
-364 360 363 0
-360 359 0
-360 247 0
-359 2 0
-359 358 0
-363 362 0
-363 251 0
-362 2 0
-362 361 0
-465 416 464 0
-416 392 415 0
-392 379 391 0
-379 373 378 0
-373 370 372 0
-370 369 0
-370 28 0
-369 1 0
-369 259 0
-372 371 0
-372 36 0
-371 1 0
-371 262 0
-378 375 377 0
-375 374 0
-375 44 0
-374 1 0
-374 266 0
-377 376 0
-377 52 0
-376 1 0
-376 269 0
-391 385 390 0
-385 381 384 0
-381 380 0
-381 60 0
-380 1 0
-380 274 0
-384 383 0
-384 64 0
-383 1 0
-383 382 0
-390 387 389 0
-387 386 0
-387 68 0
-386 1 0
-386 279 0
-389 388 0
-389 72 0
-388 1 0
-388 282 0
-415 403 414 0
-403 397 402 0
-397 394 396 0
-394 393 0
-394 80 0
-393 1 0
-393 224 0
-396 395 0
-396 84 0
-395 1 0
-395 198 0
-402 399 401 0
-399 398 0
-399 88 0
-398 1 0
-398 208 0
-401 400 0
-401 92 0
-400 1 0
-400 218 0
-414 408 413 0
-408 405 407 0
-405 404 0
-405 100 0
-404 1 0
-404 289 0
-407 406 0
-407 104 0
-406 1 0
-406 292 0
-413 410 412 0
-410 409 0
-410 108 0
-409 1 0
-409 296 0
-412 411 0
-412 112 0
-411 1 0
-411 299 0
-464 439 463 0
-439 427 438 0
-427 421 426 0
-421 418 420 0
-418 417 0
-418 28 0
-417 2 0
-417 306 0
-420 419 0
-420 36 0
-419 2 0
-419 309 0
-426 423 425 0
-423 422 0
-423 44 0
-422 2 0
-422 313 0
-425 424 0
-425 52 0
-424 2 0
-424 316 0
-438 432 437 0
-432 429 431 0
-429 428 0
-429 60 0
-428 2 0
-428 321 0
-431 430 0
-431 64 0
-430 2 0
-430 324 0
-437 434 436 0
-434 433 0
-434 68 0
-433 2 0
-433 328 0
-436 435 0
-436 72 0
-435 2 0
-435 331 0
-463 451 462 0
-451 445 450 0
-445 442 444 0
-442 441 0
-442 80 0
-441 2 0
-441 440 0
-444 443 0
-444 84 0
-443 2 0
-443 339 0
-450 447 449 0
-447 446 0
-447 88 0
-446 2 0
-446 343 0
-449 448 0
-449 92 0
-448 2 0
-448 346 0
-462 456 461 0
-456 453 455 0
-453 452 0
-453 100 0
-452 2 0
-452 351 0
-455 454 0
-455 104 0
-454 2 0
-454 354 0
-461 458 460 0
-458 457 0
-458 108 0
-457 2 0
-457 358 0
-460 459 0
-460 112 0
-459 2 0
-459 361 0
-305 367 368 0
305 -367 368 0
-305 -367 368 0
-287 304 305 0
287 -304 305 0
-287 -304 305 0
-273 286 287 0
273 -286 287 0
-273 -286 287 0
-265 272 273 0
265 -272 273 0
-265 -272 273 0
-261 264 265 0
261 -264 265 0
-261 -264 265 0
-260 -139 261 0
-116 -259 260 0
-263 -147 264 0
-116 -262 263 0
-268 271 272 0
268 -271 272 0
-268 -271 272 0
-267 -155 268 0
-116 -266 267 0
-270 -163 271 0
-116 -269 270 0
-278 285 286 0
278 -285 286 0
-278 -285 286 0
-276 277 278 0
276 -277 278 0
-276 -277 278 0
-275 -171 276 0
-116 -274 275 0
-281 284 285 0
281 -284 285 0
-281 -284 285 0
-280 -181 281 0
-116 -279 280 0
-283 -185 284 0
-116 -282 283 0
-288 303 304 0
288 -303 304 0
-288 -303 304 0
-295 302 303 0
295 -302 303 0
-295 -302 303 0
-291 294 295 0
291 -294 295 0
-291 -294 295 0
-290 -239 291 0
-116 -289 290 0
-293 -243 294 0
-116 -292 293 0
-298 301 302 0
298 -301 302 0
-298 -301 302 0
-297 -247 298 0
-116 -296 297 0
-300 -251 301 0
-116 -299 300 0
-336 366 367 0
336 -366 367 0
-336 -366 367 0
-320 335 336 0
320 -335 336 0
-320 -335 336 0
-312 319 320 0
312 -319 320 0
-312 -319 320 0
-308 311 312 0
308 -311 312 0
-308 -311 312 0
-307 -139 308 0
-2 -306 307 0
-310 -147 311 0
-2 -309 310 0
-315 318 319 0
315 -318 319 0
-315 -318 319 0
-314 -155 315 0
-2 -313 314 0
-317 -163 318 0
-2 -316 317 0
-327 334 335 0
327 -334 335 0
-327 -334 335 0
-323 326 327 0
323 -326 327 0
-323 -326 327 0
-322 -171 323 0
-2 -321 322 0
-325 -255 326 0
-2 -324 325 0
-330 333 334 0
330 -333 334 0
-330 -333 334 0
-329 -181 330 0
-2 -328 329 0
-332 -185 333 0
-2 -331 332 0
-350 365 366 0
350 -365 366 0
-350 -365 366 0
-342 349 350 0
342 -349 350 0
-342 -349 350 0
-338 341 342 0
338 -341 342 0
-338 -341 342 0
-337 -228 338 0
-340 -193 341 0
-2 -339 340 0
-345 348 349 0
345 -348 349 0
-345 -348 349 0
-344 -203 345 0
-2 -343 344 0
-347 -213 348 0
-2 -346 347 0
-357 364 365 0
357 -364 365 0
-357 -364 365 0
-353 356 357 0
353 -356 357 0
-353 -356 357 0
-352 -239 353 0
-2 -351 352 0
-355 -243 356 0
-2 -354 355 0
-360 363 364 0
360 -363 364 0
-360 -363 364 0
-359 -247 360 0
-2 -358 359 0
-362 -251 363 0
-2 -361 362 0
-416 464 465 0
416 -464 465 0
-416 -464 465 0
-392 415 416 0
392 -415 416 0
-392 -415 416 0
-379 391 392 0
379 -391 392 0
-379 -391 392 0
-373 378 379 0
373 -378 379 0
-373 -378 379 0
-370 372 373 0
370 -372 373 0
-370 -372 373 0
-369 -28 370 0
-1 -259 369 0
-371 -36 372 0
-1 -262 371 0
-375 377 378 0
375 -377 378 0
-375 -377 378 0
-374 -44 375 0
-1 -266 374 0
-376 -52 377 0
-1 -269 376 0
-385 390 391 0
385 -390 391 0
-385 -390 391 0
-381 384 385 0
381 -384 385 0
-381 -384 385 0
-380 -60 381 0
-1 -274 380 0
-383 -64 384 0
-1 -382 383 0
-387 389 390 0
387 -389 390 0
-387 -389 390 0
-386 -68 387 0
-1 -279 386 0
-388 -72 389 0
-1 -282 388 0
-403 414 415 0
403 -414 415 0
-403 -414 415 0
-397 402 403 0
397 -402 403 0
-397 -402 403 0
-394 396 397 0
394 -396 397 0
-394 -396 397 0
-393 -80 394 0
-1 -224 393 0
-395 -84 396 0
-1 -198 395 0
-399 401 402 0
399 -401 402 0
-399 -401 402 0
-398 -88 399 0
-1 -208 398 0
-400 -92 401 0
-1 -218 400 0
-408 413 414 0
408 -413 414 0
-408 -413 414 0
-405 407 408 0
405 -407 408 0
-405 -407 408 0
-404 -100 405 0
-1 -289 404 0
-406 -104 407 0
-1 -292 406 0
-410 412 413 0
410 -412 413 0
-410 -412 413 0
-409 -108 410 0
-1 -296 409 0
-411 -112 412 0
-1 -299 411 0
-439 463 464 0
439 -463 464 0
-439 -463 464 0
-427 438 439 0
427 -438 439 0
-427 -438 439 0
-421 426 427 0
421 -426 427 0
-421 -426 427 0
-418 420 421 0
418 -420 421 0
-418 -420 421 0
-417 -28 418 0
-2 -306 417 0
-419 -36 420 0
-2 -309 419 0
-423 425 426 0
423 -425 426 0
-423 -425 426 0
-422 -44 423 0
-2 -313 422 0
-424 -52 425 0
-2 -316 424 0
-432 437 438 0
432 -437 438 0
-432 -437 438 0
-429 431 432 0
429 -431 432 0
-429 -431 432 0
-428 -60 429 0
-2 -321 428 0
-430 -64 431 0
-2 -324 430 0
-434 436 437 0
434 -436 437 0
-434 -436 437 0
-433 -68 434 0
-2 -328 433 0
-435 -72 436 0
-2 -331 435 0
-451 462 463 0
451 -462 463 0
-451 -462 463 0
-445 450 451 0
445 -450 451 0
-445 -450 451 0
-442 444 445 0
442 -444 445 0
-442 -444 445 0
-441 -80 442 0
-2 -440 441 0
-443 -84 444 0
-2 -339 443 0
-447 449 450 0
447 -449 450 0
-447 -449 450 0
-446 -88 447 0
-2 -343 446 0
-448 -92 449 0
-2 -346 448 0
-456 461 462 0
456 -461 462 0
-456 -461 462 0
-453 455 456 0
453 -455 456 0
-453 -455 456 0
-452 -100 453 0
-2 -351 452 0
-454 -104 455 0
-2 -354 454 0
-458 460 461 0
458 -460 461 0
-458 -460 461 0
-457 -108 458 0
-2 -358 457 0
-459 -112 460 0
-2 -361 459 0
1420 0
4 -1421 0
8 -1421 0
-4 -8 1421 0
20 -1422 0
16 -1422 0
-20 -16 1422 0
24 -1423 0
12 -1423 0
-24 -12 1423 0
8 -1424 0
5 -1424 0
-8 -5 1424 0
32 -1425 0
24 -1425 0
-32 -24 1425 0
4 -1426 0
9 -1426 0
-4 -9 1426 0
40 -1427 0
24 -1427 0
-40 -24 1427 0
5 -1428 0
9 -1428 0
-5 -9 1428 0
48 -1429 0
24 -1429 0
-48 -24 1429 0
20 -1430 0
17 -1430 0
-20 -17 1430 0
56 -1431 0
12 -1431 0
-56 -12 1431 0
56 -1432 0
32 -1432 0
-56 -32 1432 0
56 -1433 0
40 -1433 0
-56 -40 1433 0
56 -1434 0
48 -1434 0
-56 -48 1434 0
16 -1435 0
21 -1435 0
-16 -21 1435 0
12 -1436 0
76 -1436 0
-12 -76 1436 0
32 -1437 0
76 -1437 0
-32 -76 1437 0
40 -1438 0
76 -1438 0
-40 -76 1438 0
48 -1439 0
76 -1439 0
-48 -76 1439 0
21 -1440 0
17 -1440 0
-21 -17 1440 0
12 -1441 0
96 -1441 0
-12 -96 1441 0
32 -1442 0
96 -1442 0
-32 -96 1442 0
40 -1443 0
96 -1443 0
-40 -96 1443 0
48 -1444 0
96 -1444 0
-48 -96 1444 0
122 -1445 0
119 -1445 0
-122 -119 1445 0
129 -1446 0
132 -1446 0
-129 -132 1446 0
135 -1447 0
125 -1447 0
-135 -125 1447 0
5 -1448 0
122 -1448 0
-5 -122 1448 0
135 -1449 0
143 -1449 0
-135 -143 1449 0
9 -1450 0
119 -1450 0
-9 -119 1450 0
151 -1451 0
135 -1451 0
-151 -135 1451 0
159 -1452 0
135 -1452 0
-159 -135 1452 0
17 -1453 0
132 -1453 0
-17 -132 1453 0
167 -1454 0
125 -1454 0
-167 -125 1454 0
167 -1455 0
151 -1455 0
-167 -151 1455 0
167 -1456 0
159 -1456 0
-167 -159 1456 0
21 -1457 0
129 -1457 0
-21 -129 1457 0
189 -1458 0
143 -1458 0
-189 -143 1458 0
198 -1459 0
116 -1459 0
-198 -116 1459 0
193 -1460 0
199 -1460 0
-193 -199 1460 0
151 -1461 0
189 -1461 0
-151 -189 1461 0
208 -1462 0
116 -1462 0
-208 -116 1462 0
203 -1463 0
209 -1463 0
-203 -209 1463 0
159 -1464 0
189 -1464 0
-159 -189 1464 0
218 -1465 0
116 -1465 0
-218 -116 1465 0
213 -1466 0
219 -1466 0
-213 -219 1466 0
224 -1467 0
116 -1467 0
-224 -116 1467 0
189 -1468 0
125 -1468 0
-189 -125 1468 0
235 -1469 0
125 -1469 0
-235 -125 1469 0
235 -1470 0
143 -1470 0
-235 -143 1470 0
235 -1471 0
151 -1471 0
-235 -151 1471 0
-235 -1472 0
-159 -1472 0
235 159 1472 0
167 -1473 0
143 -1473 0
-167 -143 1473 0
259 -1474 0
116 -1474 0
-259 -116 1474 0
139 -1475 0
260 -1475 0
-139 -260 1475 0
262 -1476 0
116 -1476 0
-262 -116 1476 0
147 -1477 0
263 -1477 0
-147 -263 1477 0
-261 -1478 0
-264 -1478 0
261 264 1478 0
266 -1479 0
116 -1479 0
-266 -116 1479 0
155 -1480 0
267 -1480 0
-155 -267 1480 0
269 -1481 0
116 -1481 0
-269 -116 1481 0
163 -1482 0
270 -1482 0
-163 -270 1482 0
-268 -1483 0
-271 -1483 0
268 271 1483 0
-265 -1484 0
-272 -1484 0
265 272 1484 0
274 -1485 0
116 -1485 0
-274 -116 1485 0
171 -1486 0
275 -1486 0
-171 -275 1486 0
279 -1487 0
116 -1487 0
-279 -116 1487 0
181 -1488 0
280 -1488 0
-181 -280 1488 0
282 -1489 0
116 -1489 0
-282 -116 1489 0
185 -1490 0
283 -1490 0
-185 -283 1490 0
-281 -1491 0
-284 -1491 0
281 284 1491 0
-278 -1492 0
-285 -1492 0
278 285 1492 0
-273 -1493 0
-286 -1493 0
273 286 1493 0
289 -1494 0
116 -1494 0
-289 -116 1494 0
239 -1495 0
290 -1495 0
-239 -290 1495 0
292 -1496 0
116 -1496 0
-292 -116 1496 0
243 -1497 0
293 -1497 0
-243 -293 1497 0
-291 -1498 0
-294 -1498 0
291 294 1498 0
296 -1499 0
116 -1499 0
-296 -116 1499 0
247 -1500 0
297 -1500 0
-247 -297 1500 0
299 -1501 0
116 -1501 0
-299 -116 1501 0
251 -1502 0
300 -1502 0
-251 -300 1502 0
-298 -1503 0
-301 -1503 0
298 301 1503 0
-295 -1504 0
-302 -1504 0
295 302 1504 0
-287 -1505 0
-304 -1505 0
287 304 1505 0
306 -1506 0
2 -1506 0
-306 -2 1506 0
139 -1507 0
307 -1507 0
-139 -307 1507 0
309 -1508 0
2 -1508 0
-309 -2 1508 0
147 -1509 0
310 -1509 0
-147 -310 1509 0
-308 -1510 0
-311 -1510 0
308 311 1510 0
313 -1511 0
2 -1511 0
-313 -2 1511 0
155 -1512 0
314 -1512 0
-155 -314 1512 0
316 -1513 0
2 -1513 0
-316 -2 1513 0
163 -1514 0
317 -1514 0
-163 -317 1514 0
-315 -1515 0
-318 -1515 0
315 318 1515 0
-312 -1516 0
-319 -1516 0
312 319 1516 0
321 -1517 0
2 -1517 0
-321 -2 1517 0
171 -1518 0
322 -1518 0
-171 -322 1518 0
324 -1519 0
2 -1519 0
-324 -2 1519 0
255 -1520 0
325 -1520 0
-255 -325 1520 0
-323 -1521 0
-326 -1521 0
323 326 1521 0
328 -1522 0
2 -1522 0
-328 -2 1522 0
181 -1523 0
329 -1523 0
-181 -329 1523 0
331 -1524 0
2 -1524 0
-331 -2 1524 0
185 -1525 0
332 -1525 0
-185 -332 1525 0
-330 -1526 0
-333 -1526 0
330 333 1526 0
-327 -1527 0
1526 -1527 0
327 -1526 1527 0
-320 -1528 0
-327 -1528 0
320 327 1528 0
-334 -1529 0
1528 -1529 0
334 -1528 1529 0
339 -1530 0
2 -1530 0
-339 -2 1530 0
193 -1531 0
340 -1531 0
-193 -340 1531 0
-338 -1532 0
-341 -1532 0
338 341 1532 0
343 -1533 0
2 -1533 0
-343 -2 1533 0
203 -1534 0
344 -1534 0
-203 -344 1534 0
346 -1535 0
2 -1535 0
-346 -2 1535 0
213 -1536 0
347 -1536 0
-213 -347 1536 0
-345 -1537 0
-348 -1537 0
345 348 1537 0
-342 -1538 0
1537 -1538 0
342 -1537 1538 0
351 -1539 0
2 -1539 0
-351 -2 1539 0
239 -1540 0
352 -1540 0
-239 -352 1540 0
354 -1541 0
2 -1541 0
-354 -2 1541 0
243 -1542 0
355 -1542 0
-243 -355 1542 0
-353 -1543 0
-356 -1543 0
353 356 1543 0
358 -1544 0
2 -1544 0
-358 -2 1544 0
247 -1545 0
359 -1545 0
-247 -359 1545 0
361 -1546 0
2 -1546 0
-361 -2 1546 0
251 -1547 0
362 -1547 0
-251 -362 1547 0
-360 -1548 0
-363 -1548 0
360 363 1548 0
-357 -1549 0
-364 -1549 0
357 364 1549 0
-350 -1550 0
1549 -1550 0
350 -1549 1550 0
-336 -1551 0
-366 -1551 0
336 366 1551 0
-305 -1552 0
1551 -1552 0
305 -1551 1552 0
1 -1553 0
259 -1553 0
-1 -259 1553 0
28 -1554 0
369 -1554 0
-28 -369 1554 0
1 -1555 0
262 -1555 0
-1 -262 1555 0
36 -1556 0
371 -1556 0
-36 -371 1556 0
-370 -1557 0
-372 -1557 0
370 372 1557 0
1 -1558 0
266 -1558 0
-1 -266 1558 0
44 -1559 0
374 -1559 0
-44 -374 1559 0
1 -1560 0
269 -1560 0
-1 -269 1560 0
52 -1561 0
376 -1561 0
-52 -376 1561 0
-375 -1562 0
-377 -1562 0
375 377 1562 0
-373 -1563 0
1562 -1563 0
373 -1562 1563 0
1 -1564 0
274 -1564 0
-1 -274 1564 0
60 -1565 0
380 -1565 0
-60 -380 1565 0
1 -1566 0
382 -1566 0
-1 -382 1566 0
64 -1567 0
383 -1567 0
-64 -383 1567 0
-381 -1568 0
-384 -1568 0
381 384 1568 0
1 -1569 0
279 -1569 0
-1 -279 1569 0
68 -1570 0
386 -1570 0
-68 -386 1570 0
1 -1571 0
282 -1571 0
-1 -282 1571 0
72 -1572 0
388 -1572 0
-72 -388 1572 0
-387 -1573 0
-389 -1573 0
387 389 1573 0
-385 -1574 0
-390 -1574 0
385 390 1574 0
-379 -1575 0
-391 -1575 0
379 391 1575 0
1 -1576 0
224 -1576 0
-1 -224 1576 0
80 -1577 0
393 -1577 0
-80 -393 1577 0
198 -1578 0
1 -1578 0
-198 -1 1578 0
84 -1579 0
395 -1579 0
-84 -395 1579 0
-394 -1580 0
-396 -1580 0
394 396 1580 0
208 -1581 0
1 -1581 0
-208 -1 1581 0
88 -1582 0
398 -1582 0
-88 -398 1582 0
218 -1583 0
1 -1583 0
-218 -1 1583 0
92 -1584 0
400 -1584 0
-92 -400 1584 0
-399 -1585 0
-401 -1585 0
399 401 1585 0
-397 -1586 0
1585 -1586 0
397 -1585 1586 0
289 -1587 0
1 -1587 0
-289 -1 1587 0
100 -1588 0
404 -1588 0
-100 -404 1588 0
292 -1589 0
1 -1589 0
-292 -1 1589 0
104 -1590 0
406 -1590 0
-104 -406 1590 0
-405 -1591 0
-407 -1591 0
405 407 1591 0
296 -1592 0
1 -1592 0
-296 -1 1592 0
108 -1593 0
409 -1593 0
-108 -409 1593 0
299 -1594 0
1 -1594 0
-299 -1 1594 0
112 -1595 0
411 -1595 0
-112 -411 1595 0
-410 -1596 0
-412 -1596 0
410 412 1596 0
-408 -1597 0
1596 -1597 0
408 -1596 1597 0
-403 -1598 0
-408 -1598 0
403 408 1598 0
-413 -1599 0
1598 -1599 0
413 -1598 1599 0
-392 -1600 0
-403 -1600 0
392 403 1600 0
-414 -1601 0
1600 -1601 0
414 -1600 1601 0
28 -1602 0
417 -1602 0
-28 -417 1602 0
36 -1603 0
419 -1603 0
-36 -419 1603 0
-418 -1604 0
-420 -1604 0
418 420 1604 0
44 -1605 0
422 -1605 0
-44 -422 1605 0
52 -1606 0
424 -1606 0
-52 -424 1606 0
-423 -1607 0
-425 -1607 0
423 425 1607 0
-421 -1608 0
-426 -1608 0
421 426 1608 0
60 -1609 0
428 -1609 0
-60 -428 1609 0
64 -1610 0
430 -1610 0
-64 -430 1610 0
-429 -1611 0
-431 -1611 0
429 431 1611 0
68 -1612 0
433 -1612 0
-68 -433 1612 0
72 -1613 0
435 -1613 0
-72 -435 1613 0
-434 -1614 0
-436 -1614 0
434 436 1614 0
-432 -1615 0
-437 -1615 0
432 437 1615 0
-427 -1616 0
-438 -1616 0
427 438 1616 0
440 -1617 0
2 -1617 0
-440 -2 1617 0
80 -1618 0
441 -1618 0
-80 -441 1618 0
84 -1619 0
443 -1619 0
-84 -443 1619 0
-442 -1620 0
-444 -1620 0
442 444 1620 0
88 -1621 0
446 -1621 0
-88 -446 1621 0
92 -1622 0
448 -1622 0
-92 -448 1622 0
-447 -1623 0
-449 -1623 0
447 449 1623 0
-445 -1624 0
1623 -1624 0
445 -1623 1624 0
100 -1625 0
452 -1625 0
-100 -452 1625 0
104 -1626 0
454 -1626 0
-104 -454 1626 0
-453 -1627 0
-455 -1627 0
453 455 1627 0
108 -1628 0
457 -1628 0
-108 -457 1628 0
112 -1629 0
459 -1629 0
-112 -459 1629 0
-458 -1630 0
-460 -1630 0
458 460 1630 0
-456 -1631 0
-461 -1631 0
456 461 1631 0
-451 -1632 0
1631 -1632 0
451 -1631 1632 0
-439 -1633 0
-463 -1633 0
439 463 1633 0
-416 -1634 0
1633 -1634 0
416 -1633 1634 0
